n = 30
Q1 = [0 23 39 12 33 6 11 31 0 37 0 25 13 0 37 0 8 24 20 35 15 11 0 0 20 35 30 0 0 0; 0 0 14 47 26 31 25 8 0 0 50 39 6 16 0 0 27 43 28 0 0 24 21 14 22 40 20 47 35 0; 0 0 0 45 27 25 19 41 45 35 46 19 0 50 0 0 16 0 0 0 41 0 18 0 13 22 40 38 18 0; 0 0 0 0 0 15 13 0 19 0 47 11 49 44 20 0 10 22 15 0 46 0 0 44 24 22 19 25 14 0; 0 0 0 0 0 22 43 46 44 28 37 0 0 21 41 14 21 37 5 37 14 0 27 0 0 19 0 0 0 48; 0 0 0 0 0 0 0 23 0 27 35 42 0 12 7 19 49 33 19 12 0 0 0 0 0 0 0 26 0 22; 0 0 0 0 0 0 0 35 31 41 27 25 27 15 0 10 25 0 0 38 25 17 8 0 34 35 20 23 32 46; 0 0 0 0 0 0 0 0 38 23 32 0 43 0 35 43 15 38 36 15 37 7 35 28 9 0 49 0 16 0; 0 0 0 0 0 0 0 0 0 0 22 34 49 0 36 0 46 21 0 10 16 0 21 0 16 15 0 6 32 0; 0 0 0 0 0 0 0 0 0 0 0 34 0 39 28 0 18 50 50 0 20 0 0 22 6 35 41 12 9 36; 0 0 0 0 0 0 0 0 0 0 0 42 24 25 44 25 22 5 45 27 0 0 43 48 30 0 19 0 41 30; 0 0 0 0 0 0 0 0 0 0 0 0 35 49 22 0 0 41 10 50 0 16 13 26 24 45 0 22 0 21; 0 0 0 0 0 0 0 0 0 0 0 0 0 19 10 0 0 27 0 41 50 18 0 43 8 35 18 22 0 0; 0 0 0 0 0 0 0 0 0 0 0 0 0 0 36 25 0 0 0 50 0 0 50 18 25 43 0 36 39 27; 0 0 0 0 0 0 0 0 0 0 0 0 0 0 0 10 29 31 37 32 0 21 28 9 48 0 17 12 0 0; 0 0 0 0 0 0 0 0 0 0 0 0 0 0 0 0 42 0 0 0 32 45 0 44 35 22 9 10 0 37; 0 0 0 0 0 0 0 0 0 0 0 0 0 0 0 0 0 37 47 6 0 33 43 26 24 26 20 7 37 40; 0 0 0 0 0 0 0 0 0 0 0 0 0 0 0 0 0 0 10 9 0 47 9 0 43 0 0 0 0 0; 0 0 0 0 0 0 0 0 0 0 0 0 0 0 0 0 0 0 0 33 6 46 44 37 34 0 7 19 0 0; 0 0 0 0 0 0 0 0 0 0 0 0 0 0 0 0 0 0 0 0 0 44 46 0 37 0 0 43 48 0; 0 0 0 0 0 0 0 0 0 0 0 0 0 0 0 0 0 0 0 0 0 35 39 0 29 9 21 8 0 0; 0 0 0 0 0 0 0 0 0 0 0 0 0 0 0 0 0 0 0 0 0 0 15 15 0 31 0 32 5 7; 0 0 0 0 0 0 0 0 0 0 0 0 0 0 0 0 0 0 0 0 0 0 0 31 41 26 44 34 7 0; 0 0 0 0 0 0 0 0 0 0 0 0 0 0 0 0 0 0 0 0 0 0 0 0 0 35 24 19 46 35; 0 0 0 0 0 0 0 0 0 0 0 0 0 0 0 0 0 0 0 0 0 0 0 0 0 0 38 31 50 7; 0 0 0 0 0 0 0 0 0 0 0 0 0 0 0 0 0 0 0 0 0 0 0 0 0 0 11 39 0 0; 0 0 0 0 0 0 0 0 0 0 0 0 0 0 0 0 0 0 0 0 0 0 0 0 0 0 0 47 35 23; 0 0 0 0 0 0 0 0 0 0 0 0 0 0 0 0 0 0 0 0 0 0 0 0 0 0 0 0 49 18; 0 0 0 0 0 0 0 0 0 0 0 0 0 0 0 0 0 0 0 0 0 0 0 0 0 0 0 0 0 42; 0 0 0 0 0 0 0 0 0 0 0 0 0 0 0 0 0 0 0 0 0 0 0 0 0 0 0 0 0 0]
Q2 = [0.0 46.0 2.0 41.0 6.0 47.0 41.0 10.0 0.0 12.0 0.0 16.0 43.0 0.0 1.0 0.0 45.0 33.0 48.0 14.0 44.0 47.0 0.0 0.0 49.0 2.0 4.0 0.0 0.0 0.0; 0.0 0.0 48.0 2.0 21.0 17.0 6.0 46.0 0.0 0.0 0.0 6.0 45.0 45.0 0.0 0.0 12.0 5.0 3.0 0.0 0.0 36.0 41.0 42.0 40.0 10.0 34.0 3.0 9.0 0.0; 0.0 0.0 0.0 0.0 21.0 3.0 35.0 6.0 4.0 13.0 2.0 50.0 0.0 0.0 0.0 0.0 49.0 0.0 0.0 0.0 6.0 0.0 42.0 0.0 47.0 31.0 1.0 2.0 44.0 0.0; 0.0 0.0 0.0 0.0 0.0 47.0 43.0 0.0 38.0 0.0 3.0 42.0 0.0 3.0 31.0 0.0 48.0 34.0 35.0 0.0 1.0 0.0 0.0 3.0 41.0 32.0 47.0 17.0 39.0 0.0; 0.0 0.0 0.0 0.0 0.0 49.0 5.0 4.0 4.0 12.0 3.0 0.0 0.0 45.0 3.0 36.0 48.0 10.0 46.0 13.0 41.0 0.0 0.0 0.0 0.0 44.0 0.0 0.0 0.0 0.0; 0.0 0.0 0.0 0.0 0.0 0.0 0.0 28.0 0.0 22.0 5.0 8.0 0.0 41.0 44.0 33.0 1.0 17.0 38.0 48.0 0.0 0.0 0.0 0.0 0.0 0.0 0.0 11.0 0.0 33.0; 0.0 0.0 0.0 0.0 0.0 0.0 0.0 5.0 15.0 4.0 7.0 7.0 6.0 44.0 0.0 42.0 8.0 0.0 0.0 8.0 1.0 36.0 50.0 0.0 9.0 3.0 50.0 46.0 12.0 2.0; 0.0 0.0 0.0 0.0 0.0 0.0 0.0 0.0 7.0 48.0 14.0 0.0 3.0 0.0 1.0 6.0 44.0 6.0 9.0 48.0 0.0 46.0 14.0 19.0 44.0 0.0 0.0 0.0 35.0 0.0; 0.0 0.0 0.0 0.0 0.0 0.0 0.0 0.0 0.0 0.0 46.0 11.0 1.0 0.0 5.0 0.0 0.0 39.0 0.0 44.0 45.0 0.0 29.0 0.0 34.0 48.0 0.0 50.0 3.0 0.0; 0.0 0.0 0.0 0.0 0.0 0.0 0.0 0.0 0.0 0.0 0.0 7.0 0.0 10.0 6.0 0.0 49.0 0.0 0.0 0.0 41.0 0.0 0.0 34.0 44.0 13.0 8.0 44.0 45.0 0.0; 0.0 0.0 0.0 0.0 0.0 0.0 0.0 0.0 0.0 0.0 0.0 4.0 36.0 3.0 0.0 13.0 41.0 49.0 4.0 11.0 0.0 0.0 7.0 1.0 12.0 0.0 41.0 0.0 7.0 9.0; 0.0 0.0 0.0 0.0 0.0 0.0 0.0 0.0 0.0 0.0 0.0 0.0 3.0 1.0 46.0 0.0 0.0 5.0 49.0 0.0 0.0 48.0 37.0 8.0 36.0 4.0 0.0 50.0 0.0 49.0; 0.0 0.0 0.0 0.0 0.0 0.0 0.0 0.0 0.0 0.0 0.0 0.0 0.0 48.0 42.0 0.0 0.0 2.0 0.0 5.0 0.0 40.0 0.0 6.0 44.0 7.0 39.0 42.0 0.0 0.0; 0.0 0.0 0.0 0.0 0.0 0.0 0.0 0.0 0.0 0.0 0.0 0.0 0.0 0.0 10.0 11.0 0.0 0.0 0.0 0.0 0.0 0.0 0.0 48.0 24.0 1.0 0.0 14.0 10.0 6.0; 0.0 0.0 0.0 0.0 0.0 0.0 0.0 0.0 0.0 0.0 0.0 0.0 0.0 0.0 0.0 48.0 11.0 10.0 12.0 18.0 0.0 46.0 20.0 45.0 2.0 0.0 40.0 42.0 0.0 0.0; 0.0 0.0 0.0 0.0 0.0 0.0 0.0 0.0 0.0 0.0 0.0 0.0 0.0 0.0 0.0 0.0 4.0 0.0 0.0 0.0 10.0 4.0 0.0 6.0 4.0 40.0 50.0 46.0 0.0 7.0; 0.0 0.0 0.0 0.0 0.0 0.0 0.0 0.0 0.0 0.0 0.0 0.0 0.0 0.0 0.0 0.0 0.0 9.0 3.0 48.0 0.0 3.0 3.0 8.0 38.0 5.0 49.0 46.0 3.0 8.0; 0.0 0.0 0.0 0.0 0.0 0.0 0.0 0.0 0.0 0.0 0.0 0.0 0.0 0.0 0.0 0.0 0.0 0.0 50.0 46.0 0.0 0.0 48.0 0.0 0.0 0.0 0.0 0.0 0.0 0.0; 0.0 0.0 0.0 0.0 0.0 0.0 0.0 0.0 0.0 0.0 0.0 0.0 0.0 0.0 0.0 0.0 0.0 0.0 0.0 8.0 45.0 3.0 3.0 0.0 14.0 0.0 45.0 34.0 0.0 0.0; 0.0 0.0 0.0 0.0 0.0 0.0 0.0 0.0 0.0 0.0 0.0 0.0 0.0 0.0 0.0 0.0 0.0 0.0 0.0 0.0 0.0 1.0 3.0 0.0 12.0 0.0 0.0 7.0 2.0 0.0; 0.0 0.0 0.0 0.0 0.0 0.0 0.0 0.0 0.0 0.0 0.0 0.0 0.0 0.0 0.0 0.0 0.0 0.0 0.0 0.0 0.0 15.0 0.0 0.0 1.0 47.0 49.0 45.0 0.0 0.0; 0.0 0.0 0.0 0.0 0.0 0.0 0.0 0.0 0.0 0.0 0.0 0.0 0.0 0.0 0.0 0.0 0.0 0.0 0.0 0.0 0.0 0.0 47.0 50.0 0.0 12.0 0.0 17.0 45.0 49.0; 0.0 0.0 0.0 0.0 0.0 0.0 0.0 0.0 0.0 0.0 0.0 0.0 0.0 0.0 0.0 0.0 0.0 0.0 0.0 0.0 0.0 0.0 0.0 10.0 1.0 4.0 3.0 12.0 49.0 0.0; 0.0 0.0 0.0 0.0 0.0 0.0 0.0 0.0 0.0 0.0 0.0 0.0 0.0 0.0 0.0 0.0 0.0 0.0 0.0 0.0 0.0 0.0 0.0 0.0 0.0 15.0 28.0 40.0 3.0 13.0; 0.0 0.0 0.0 0.0 0.0 0.0 0.0 0.0 0.0 0.0 0.0 0.0 0.0 0.0 0.0 0.0 0.0 0.0 0.0 0.0 0.0 0.0 0.0 0.0 0.0 0.0 4.0 1.0 0.0 45.0; 0.0 0.0 0.0 0.0 0.0 0.0 0.0 0.0 0.0 0.0 0.0 0.0 0.0 0.0 0.0 0.0 0.0 0.0 0.0 0.0 0.0 0.0 0.0 0.0 0.0 0.0 45.0 11.0 0.0 0.0; 0.0 0.0 0.0 0.0 0.0 0.0 0.0 0.0 0.0 0.0 0.0 0.0 0.0 0.0 0.0 0.0 0.0 0.0 0.0 0.0 0.0 0.0 0.0 0.0 0.0 0.0 0.0 1.0 2.0 33.0; 0.0 0.0 0.0 0.0 0.0 0.0 0.0 0.0 0.0 0.0 0.0 0.0 0.0 0.0 0.0 0.0 0.0 0.0 0.0 0.0 0.0 0.0 0.0 0.0 0.0 0.0 0.0 0.0 0.0 35.0; 0.0 0.0 0.0 0.0 0.0 0.0 0.0 0.0 0.0 0.0 0.0 0.0 0.0 0.0 0.0 0.0 0.0 0.0 0.0 0.0 0.0 0.0 0.0 0.0 0.0 0.0 0.0 0.0 0.0 7.0; 0.0 0.0 0.0 0.0 0.0 0.0 0.0 0.0 0.0 0.0 0.0 0.0 0.0 0.0 0.0 0.0 0.0 0.0 0.0 0.0 0.0 0.0 0.0 0.0 0.0 0.0 0.0 0.0 0.0 0.0]
Q3 = [0 3 30 0 8 0 3 22 72 3 72 13 6 72 27 72 9 3 1 11 5 9 72 72 0 14 46 72 72 72; 0 0 3 3 13 13 58 13 72 72 16 3 3 8 72 72 19 5 46 72 72 11 1 3 8 8 6 16 5 72; 0 0 0 9 3 68 8 23 3 15 9 0 72 5 72 72 1 72 72 72 6 72 1 72 3 13 30 16 5 72; 0 0 0 0 72 7 10 72 9 72 10 11 1 24 19 72 11 8 16 72 3 72 72 23 7 10 3 27 6 72; 0 0 0 0 0 1 20 9 18 12 31 72 72 6 2 13 0 25 14 0 3 72 59 72 72 4 72 72 72 12; 0 0 0 0 0 0 72 2 72 16 26 6 72 16 2 16 20 12 10 11 72 72 72 72 72 72 72 28 72 11; 0 0 0 0 0 0 0 31 19 18 47 49 41 12 72 7 44 72 72 13 69 18 3 72 5 18 1 0 15 12; 0 0 0 0 0 0 0 0 11 0 8 72 5 72 15 7 4 28 25 9 33 3 4 10 4 72 1 72 20 72; 0 0 0 0 0 0 0 0 0 72 0 11 3 72 21 72 11 8 72 6 8 72 22 72 6 0 72 14 40 72; 0 0 0 0 0 0 0 0 0 0 72 26 72 15 67 72 5 20 6 72 6 72 72 15 10 0 13 9 14 13; 0 0 0 0 0 0 0 0 0 0 0 24 6 56 21 33 8 10 4 24 72 72 3 8 13 72 0 72 6 28; 0 0 0 0 0 0 0 0 0 0 0 0 28 10 4 72 72 1 9 15 72 6 6 56 8 2 72 0 72 0; 0 0 0 0 0 0 0 0 0 0 0 0 0 3 7 72 72 45 72 5 12 11 72 10 14 20 12 3 72 72; 0 0 0 0 0 0 0 0 0 0 0 0 0 0 13 21 72 72 72 11 72 72 9 6 22 12 72 21 12 45; 0 0 0 0 0 0 0 0 0 0 0 0 0 0 0 1 26 18 21 3 72 2 19 5 20 72 8 8 72 72; 0 0 0 0 0 0 0 0 0 0 0 0 0 0 0 0 0 72 72 72 13 11 72 8 3 10 9 7 72 23; 0 0 0 0 0 0 0 0 0 0 0 0 0 0 0 0 0 4 22 1 72 18 21 39 8 44 3 18 2 18; 0 0 0 0 0 0 0 0 0 0 0 0 0 0 0 0 0 0 8 0 72 7 14 72 21 72 72 72 72 72; 0 0 0 0 0 0 0 0 0 0 0 0 0 0 0 0 0 0 0 26 6 22 0 18 17 72 17 14 72 72; 0 0 0 0 0 0 0 0 0 0 0 0 0 0 0 0 0 0 0 0 72 23 15 72 7 72 72 20 20 72; 0 0 0 0 0 0 0 0 0 0 0 0 0 0 0 0 0 0 0 0 0 14 10 72 61 11 2 11 72 72; 0 0 0 0 0 0 0 0 0 0 0 0 0 0 0 0 0 0 0 0 0 0 0 2 72 19 72 22 15 15; 0 0 0 0 0 0 0 0 0 0 0 0 0 0 0 0 0 0 0 0 0 0 0 30 23 62 14 11 11 72; 0 0 0 0 0 0 0 0 0 0 0 0 0 0 0 0 0 0 0 0 0 0 0 0 72 4 11 2 0 16; 0 0 0 0 0 0 0 0 0 0 0 0 0 0 0 0 0 0 0 0 0 0 0 0 0 72 1 43 6 7; 0 0 0 0 0 0 0 0 0 0 0 0 0 0 0 0 0 0 0 0 0 0 0 0 0 0 3 5 72 72; 0 0 0 0 0 0 0 0 0 0 0 0 0 0 0 0 0 0 0 0 0 0 0 0 0 0 0 15 30 4; 0 0 0 0 0 0 0 0 0 0 0 0 0 0 0 0 0 0 0 0 0 0 0 0 0 0 0 0 13 11; 0 0 0 0 0 0 0 0 0 0 0 0 0 0 0 0 0 0 0 0 0 0 0 0 0 0 0 0 0 19; 0 0 0 0 0 0 0 0 0 0 0 0 0 0 0 0 0 0 0 0 0 0 0 0 0 0 0 0 0 0]
